p edge 85 1148
e 1 6
e 1 13
e 1 14
e 1 17
e 1 18
e 1 24
e 1 31
e 1 34
e 1 35
e 1 36
e 1 48
e 1 51
e 1 54
e 1 57
e 1 59
e 1 60
e 1 69
e 1 81
e 1 82
e 2 7
e 2 10
e 2 11
e 2 12
e 2 13
e 2 24
e 2 37
e 2 38
e 2 42
e 2 43
e 2 44
e 2 45
e 2 46
e 2 50
e 2 51
e 2 52
e 2 54
e 2 62
e 2 65
e 2 73
e 2 75
e 2 76
e 2 80
e 2 83
e 2 84
e 3 8
e 3 13
e 3 15
e 3 21
e 3 27
e 3 30
e 3 35
e 3 38
e 3 43
e 3 47
e 3 49
e 3 52
e 3 54
e 3 56
e 3 57
e 3 59
e 3 66
e 3 73
e 3 74
e 3 77
e 3 78
e 3 82
e 3 85
e 4 7
e 4 10
e 4 19
e 4 22
e 4 24
e 4 26
e 4 38
e 4 40
e 4 42
e 4 43
e 4 48
e 4 50
e 4 54
e 4 59
e 4 64
e 4 67
e 4 73
e 4 81
e 4 83
e 5 7
e 5 9
e 5 10
e 5 13
e 5 23
e 5 29
e 5 33
e 5 34
e 5 35
e 5 40
e 5 45
e 5 50
e 5 51
e 5 52
e 5 53
e 5 55
e 5 60
e 5 63
e 5 65
e 5 66
e 5 69
e 5 70
e 5 75
e 5 79
e 5 83
e 5 85
e 6 7
e 6 8
e 6 9
e 6 10
e 6 12
e 6 17
e 6 18
e 6 20
e 6 25
e 6 26
e 6 32
e 6 36
e 6 39
e 6 43
e 6 44
e 6 47
e 6 48
e 6 49
e 6 50
e 6 56
e 6 60
e 6 65
e 6 67
e 6 68
e 6 70
e 6 71
e 6 76
e 6 78
e 6 79
e 7 8
e 7 10
e 7 12
e 7 22
e 7 23
e 7 26
e 7 31
e 7 32
e 7 34
e 7 38
e 7 45
e 7 49
e 7 50
e 7 58
e 7 62
e 7 64
e 7 69
e 7 70
e 7 71
e 7 72
e 7 76
e 7 78
e 7 79
e 7 80
e 7 85
e 8 9
e 8 10
e 8 11
e 8 14
e 8 15
e 8 17
e 8 18
e 8 26
e 8 33
e 8 35
e 8 48
e 8 49
e 8 51
e 8 53
e 8 55
e 8 57
e 8 58
e 8 59
e 8 60
e 8 61
e 8 64
e 8 65
e 8 67
e 8 70
e 8 71
e 8 75
e 8 78
e 8 83
e 8 84
e 8 85
e 9 10
e 9 11
e 9 13
e 9 16
e 9 23
e 9 25
e 9 26
e 9 29
e 9 30
e 9 38
e 9 46
e 9 50
e 9 58
e 9 59
e 9 61
e 9 62
e 9 69
e 9 72
e 9 73
e 9 76
e 9 80
e 9 81
e 9 85
e 10 13
e 10 19
e 10 20
e 10 21
e 10 24
e 10 25
e 10 27
e 10 28
e 10 29
e 10 34
e 10 37
e 10 38
e 10 44
e 10 46
e 10 53
e 10 55
e 10 57
e 10 59
e 10 62
e 10 63
e 10 65
e 10 67
e 10 70
e 10 72
e 10 73
e 10 75
e 10 76
e 10 77
e 11 12
e 11 14
e 11 22
e 11 24
e 11 28
e 11 30
e 11 31
e 11 37
e 11 38
e 11 39
e 11 41
e 11 46
e 11 52
e 11 53
e 11 69
e 11 73
e 11 76
e 11 78
e 11 81
e 11 83
e 11 85
e 12 15
e 12 17
e 12 18
e 12 19
e 12 20
e 12 21
e 12 26
e 12 27
e 12 28
e 12 32
e 12 33
e 12 34
e 12 36
e 12 37
e 12 42
e 12 43
e 12 47
e 12 49
e 12 54
e 12 55
e 12 56
e 12 58
e 12 62
e 12 63
e 12 65
e 12 66
e 12 67
e 12 68
e 12 72
e 12 74
e 12 77
e 13 24
e 13 33
e 13 36
e 13 43
e 13 44
e 13 46
e 13 49
e 13 50
e 13 51
e 13 58
e 13 60
e 13 61
e 13 64
e 13 68
e 13 69
e 13 77
e 13 82
e 13 83
e 13 85
e 14 15
e 14 20
e 14 22
e 14 23
e 14 30
e 14 32
e 14 34
e 14 37
e 14 42
e 14 45
e 14 48
e 14 50
e 14 51
e 14 53
e 14 56
e 14 57
e 14 58
e 14 62
e 14 65
e 14 67
e 14 70
e 14 74
e 14 79
e 15 19
e 15 27
e 15 28
e 15 30
e 15 35
e 15 40
e 15 42
e 15 43
e 15 47
e 15 48
e 15 51
e 15 52
e 15 58
e 15 60
e 15 61
e 15 67
e 15 70
e 15 84
e 16 18
e 16 20
e 16 21
e 16 22
e 16 24
e 16 42
e 16 45
e 16 46
e 16 48
e 16 50
e 16 51
e 16 53
e 16 54
e 16 55
e 16 57
e 16 65
e 16 67
e 16 68
e 16 70
e 16 71
e 16 75
e 16 79
e 16 81
e 17 26
e 17 28
e 17 32
e 17 33
e 17 35
e 17 38
e 17 42
e 17 46
e 17 48
e 17 50
e 17 52
e 17 54
e 17 59
e 17 61
e 17 66
e 17 69
e 17 74
e 18 20
e 18 24
e 18 27
e 18 28
e 18 30
e 18 34
e 18 36
e 18 39
e 18 41
e 18 43
e 18 48
e 18 55
e 18 60
e 18 62
e 18 64
e 18 65
e 18 71
e 18 73
e 18 75
e 18 76
e 18 78
e 18 79
e 18 84
e 19 20
e 19 22
e 19 26
e 19 27
e 19 30
e 19 38
e 19 46
e 19 52
e 19 56
e 19 65
e 19 72
e 19 75
e 19 76
e 19 77
e 19 80
e 19 81
e 19 82
e 20 24
e 20 26
e 20 27
e 20 30
e 20 32
e 20 37
e 20 42
e 20 47
e 20 50
e 20 55
e 20 56
e 20 57
e 20 62
e 20 67
e 20 68
e 20 70
e 20 71
e 20 72
e 20 74
e 20 79
e 20 80
e 20 85
e 21 24
e 21 29
e 21 31
e 21 37
e 21 39
e 21 43
e 21 47
e 21 56
e 21 57
e 21 59
e 21 60
e 21 61
e 21 66
e 21 74
e 21 76
e 21 79
e 21 80
e 21 81
e 22 23
e 22 24
e 22 26
e 22 28
e 22 33
e 22 35
e 22 40
e 22 43
e 22 44
e 22 45
e 22 46
e 22 56
e 22 57
e 22 58
e 22 64
e 22 74
e 22 75
e 22 83
e 22 84
e 22 85
e 23 24
e 23 27
e 23 29
e 23 30
e 23 31
e 23 32
e 23 33
e 23 34
e 23 35
e 23 36
e 23 37
e 23 41
e 23 42
e 23 43
e 23 46
e 23 48
e 23 53
e 23 55
e 23 61
e 23 62
e 23 70
e 23 80
e 23 81
e 24 30
e 24 32
e 24 34
e 24 39
e 24 42
e 24 44
e 24 45
e 24 46
e 24 47
e 24 49
e 24 50
e 24 54
e 24 57
e 24 61
e 24 63
e 24 67
e 24 68
e 24 70
e 24 72
e 24 73
e 24 77
e 24 82
e 25 26
e 25 29
e 25 30
e 25 34
e 25 44
e 25 45
e 25 47
e 25 54
e 25 60
e 25 62
e 25 63
e 25 64
e 25 67
e 25 71
e 25 83
e 25 84
e 26 30
e 26 34
e 26 36
e 26 40
e 26 41
e 26 48
e 26 51
e 26 56
e 26 57
e 26 58
e 26 60
e 26 64
e 26 65
e 26 71
e 26 83
e 26 85
e 27 30
e 27 32
e 27 38
e 27 39
e 27 42
e 27 44
e 27 45
e 27 46
e 27 48
e 27 52
e 27 53
e 27 54
e 27 56
e 27 57
e 27 59
e 27 60
e 27 61
e 27 63
e 27 67
e 27 71
e 27 73
e 27 79
e 27 81
e 28 33
e 28 34
e 28 40
e 28 48
e 28 55
e 28 61
e 28 70
e 28 74
e 28 76
e 28 79
e 28 84
e 29 32
e 29 36
e 29 39
e 29 42
e 29 43
e 29 44
e 29 49
e 29 50
e 29 54
e 29 55
e 29 56
e 29 58
e 29 59
e 29 63
e 29 67
e 29 71
e 29 76
e 29 77
e 29 78
e 29 79
e 29 80
e 29 82
e 30 35
e 30 36
e 30 37
e 30 45
e 30 48
e 30 50
e 30 51
e 30 53
e 30 56
e 30 59
e 30 61
e 30 64
e 30 66
e 30 70
e 30 75
e 30 76
e 30 79
e 30 81
e 30 82
e 31 34
e 31 36
e 31 38
e 31 40
e 31 41
e 31 43
e 31 48
e 31 51
e 31 53
e 31 54
e 31 55
e 31 56
e 31 58
e 31 59
e 31 62
e 31 65
e 31 70
e 31 78
e 32 38
e 32 52
e 32 56
e 32 59
e 32 60
e 32 63
e 32 71
e 32 80
e 32 82
e 32 83
e 32 84
e 32 85
e 33 36
e 33 37
e 33 38
e 33 40
e 33 42
e 33 43
e 33 46
e 33 50
e 33 52
e 33 53
e 33 54
e 33 57
e 33 61
e 33 64
e 33 66
e 33 67
e 33 68
e 33 69
e 33 70
e 33 76
e 33 78
e 34 35
e 34 37
e 34 38
e 34 41
e 34 42
e 34 47
e 34 50
e 34 51
e 34 53
e 34 57
e 34 63
e 34 70
e 34 75
e 34 77
e 34 81
e 34 83
e 34 85
e 35 37
e 35 51
e 35 52
e 35 53
e 35 57
e 35 61
e 35 62
e 35 63
e 35 66
e 35 67
e 35 69
e 35 78
e 35 81
e 35 82
e 36 40
e 36 42
e 36 43
e 36 44
e 36 49
e 36 58
e 36 59
e 36 60
e 36 61
e 36 62
e 36 64
e 36 67
e 36 68
e 36 75
e 36 81
e 36 84
e 36 85
e 37 39
e 37 41
e 37 45
e 37 47
e 37 48
e 37 49
e 37 51
e 37 53
e 37 56
e 37 58
e 37 61
e 37 64
e 37 65
e 37 71
e 37 72
e 37 73
e 37 74
e 37 76
e 37 80
e 37 81
e 37 83
e 37 84
e 37 85
e 38 39
e 38 40
e 38 42
e 38 44
e 38 47
e 38 54
e 38 56
e 38 57
e 38 59
e 38 67
e 38 69
e 38 72
e 38 73
e 38 76
e 38 77
e 38 83
e 38 84
e 39 44
e 39 47
e 39 48
e 39 52
e 39 54
e 39 60
e 39 62
e 39 67
e 39 68
e 39 72
e 39 74
e 39 81
e 40 46
e 40 50
e 40 56
e 40 57
e 40 58
e 40 59
e 40 61
e 40 62
e 40 65
e 40 67
e 40 68
e 40 70
e 40 76
e 40 81
e 40 82
e 40 84
e 41 44
e 41 45
e 41 46
e 41 47
e 41 52
e 41 55
e 41 56
e 41 57
e 41 58
e 41 59
e 41 60
e 41 63
e 41 64
e 41 66
e 41 71
e 41 74
e 41 78
e 42 44
e 42 47
e 42 49
e 42 53
e 42 56
e 42 58
e 42 59
e 42 72
e 42 75
e 42 76
e 42 78
e 42 79
e 42 80
e 43 45
e 43 47
e 43 58
e 43 59
e 43 60
e 43 62
e 43 65
e 43 66
e 43 68
e 43 69
e 43 71
e 43 73
e 43 84
e 43 85
e 44 46
e 44 49
e 44 55
e 44 57
e 44 59
e 44 65
e 44 67
e 44 68
e 44 71
e 44 74
e 44 76
e 44 81
e 44 85
e 45 46
e 45 47
e 45 53
e 45 57
e 45 59
e 45 67
e 45 69
e 45 70
e 45 77
e 45 79
e 45 82
e 45 84
e 45 85
e 46 47
e 46 51
e 46 52
e 46 57
e 46 58
e 46 61
e 46 62
e 46 66
e 46 71
e 46 74
e 46 75
e 46 76
e 46 77
e 46 79
e 46 81
e 47 54
e 47 61
e 47 62
e 47 63
e 47 67
e 47 68
e 47 73
e 47 76
e 47 81
e 48 52
e 48 55
e 48 68
e 48 72
e 48 75
e 48 77
e 48 82
e 49 52
e 49 54
e 49 57
e 49 58
e 49 59
e 49 60
e 49 64
e 49 67
e 49 69
e 49 70
e 49 72
e 49 79
e 49 84
e 49 85
e 50 52
e 50 57
e 50 58
e 50 63
e 50 65
e 50 67
e 50 71
e 50 74
e 50 76
e 50 78
e 50 81
e 50 82
e 50 84
e 51 55
e 51 66
e 51 67
e 51 69
e 51 70
e 51 73
e 51 76
e 51 81
e 52 53
e 52 57
e 52 59
e 52 60
e 52 61
e 52 64
e 52 70
e 52 73
e 52 75
e 52 76
e 52 77
e 52 80
e 52 81
e 52 82
e 52 84
e 53 54
e 53 55
e 53 56
e 53 58
e 53 60
e 53 74
e 53 77
e 53 79
e 53 81
e 53 82
e 53 83
e 54 56
e 54 57
e 54 59
e 54 66
e 54 77
e 54 78
e 54 79
e 54 83
e 54 84
e 54 85
e 55 57
e 55 60
e 55 61
e 55 64
e 55 65
e 55 66
e 55 71
e 55 73
e 55 80
e 55 82
e 55 84
e 56 58
e 56 60
e 56 62
e 56 63
e 56 66
e 56 67
e 56 70
e 56 76
e 56 80
e 56 81
e 57 61
e 57 69
e 57 74
e 57 75
e 57 79
e 57 80
e 57 83
e 57 85
e 58 59
e 58 66
e 58 69
e 58 75
e 58 78
e 58 80
e 58 82
e 58 83
e 58 85
e 59 63
e 59 65
e 59 67
e 59 69
e 59 77
e 59 79
e 59 80
e 59 81
e 59 84
e 60 64
e 60 66
e 60 71
e 60 74
e 60 75
e 60 80
e 60 82
e 60 85
e 61 62
e 61 66
e 61 68
e 61 69
e 61 72
e 61 74
e 61 82
e 61 84
e 61 85
e 62 63
e 62 66
e 62 69
e 62 71
e 62 72
e 62 73
e 62 77
e 62 79
e 62 81
e 62 82
e 62 85
e 63 64
e 63 65
e 63 66
e 63 69
e 63 71
e 63 72
e 63 75
e 63 77
e 63 84
e 64 67
e 64 69
e 64 71
e 64 75
e 64 76
e 64 79
e 64 85
e 65 69
e 65 75
e 65 77
e 65 84
e 66 69
e 66 72
e 66 73
e 66 74
e 66 75
e 66 79
e 66 80
e 67 68
e 67 71
e 67 76
e 67 80
e 67 82
e 67 83
e 68 74
e 68 78
e 69 71
e 69 75
e 69 82
e 70 73
e 70 74
e 70 78
e 70 79
e 70 80
e 70 81
e 71 72
e 71 73
e 71 84
e 72 74
e 72 76
e 72 80
e 72 82
e 72 83
e 72 84
e 72 85
e 73 75
e 73 76
e 73 78
e 73 79
e 73 81
e 74 77
e 74 80
e 75 78
e 75 79
e 75 84
e 75 85
e 76 78
e 76 79
e 76 80
e 76 81
e 76 82
e 76 85
e 77 82
e 77 83
e 78 81
e 78 83
e 79 82
e 79 84
e 80 85
e 81 82
e 81 85
e 82 85
e 83 84
e 84 85
